nK = 538;
nT = 4;
nI = 7;
L = 29;
TT = 130;
np = 1;
nc = 3;
b = [64, 43, 67, 63, 33, 40, 23];
d = [149, 115, 145, 108, 105, 85, 40];
m = [1.7, 1.8, 1.1, 1.9, 1.6, 1.6, 1.3];
pt = [0.22, 0.31, 0.31, 0.22];
st = [11.66, 13.02, 13.64, 12.54];
arc = {<1, 0, 1, 1, 0, 0, 0, [1, 1, 1, 1]>, <2, 1, 2, 1, 0, 0, 0, [1, 1, 1, 1]>, <3, 2, 3, 1, 0, 0, 0, [1, 1, 1, 1]>, <4, 3, 4, 1, 0, 0, 0, [1, 1, 1, 1]>, <5, 4, 5, 1, 0, 0, 0, [1, 1, 1, 1]>, <6, 5, 6, 1, 0, 0, 0, [1, 1, 1, 1]>, <7, 6, 7, 1, 0, 0, 0, [1, 1, 1, 1]>, <8, 7, 8, 1, 0, 0, 0, [1, 1, 1, 1]>, <9, 8, 9, 1, 0, 0, 0, [1, 1, 1, 1]>, <10, 9, 10, 1, 0, 0, 0, [1, 1, 1, 1]>, <11, 10, 11, 1, 0, 0, 0, [1, 1, 1, 1]>, <12, 11, 12, 1, 0, 0, 0, [1, 1, 1, 1]>, <13, 12, 13, 1, 0, 0, 0, [1, 1, 1, 1]>, <14, 13, 14, 1, 0, 0, 0, [1, 1, 1, 1]>, <15, 14, 15, 1, 0, 0, 0, [1, 1, 1, 1]>, <16, 15, 16, 1, 0, 0, 0, [1, 1, 1, 1]>, <17, 16, 17, 1, 0, 0, 0, [1, 1, 1, 1]>, <18, 17, 18, 1, 0, 0, 0, [1, 1, 1, 1]>, <19, 18, 19, 1, 0, 0, 0, [1, 1, 1, 1]>, <20, 19, 20, 1, 0, 0, 0, [1, 1, 1, 1]>, <21, 20, 21, 1, 0, 0, 0, [1, 1, 1, 1]>, <22, 21, 22, 1, 0, 0, 0, [1, 1, 1, 1]>, <23, 22, 23, 1, 0, 0, 0, [1, 1, 1, 1]>, <24, 23, 24, 1, 0, 0, 0, [1, 1, 1, 1]>, <25, 24, 25, 1, 0, 0, 0, [1, 1, 1, 1]>, <26, 25, 26, 1, 0, 0, 0, [1, 1, 1, 1]>, <27, 26, 27, 1, 0, 0, 0, [1, 1, 1, 1]>, <28, 27, 28, 1, 0, 0, 0, [1, 1, 1, 1]>, <29, 28, 29, 1, 0, 0, 0, [1, 1, 1, 1]>, <30, 2, 12, 10, 1, 0, 1, [1, 1, 0, 0]>, <31, 3, 13, 10, 1, 0, 1, [1, 1, 0, 0]>, <32, 4, 14, 10, 1, 0, 1, [1, 1, 0, 0]>, <33, 5, 15, 10, 1, 0, 1, [1, 1, 0, 0]>, <34, 10, 20, 10, 1, 0, 1, [1, 1, 0, 0]>, <35, 11, 21, 10, 1, 0, 1, [1, 1, 0, 0]>, <36, 12, 22, 10, 1, 0, 1, [1, 1, 0, 0]>, <37, 14, 24, 10, 1, 0, 1, [1, 1, 0, 0]>, <38, 15, 25, 10, 1, 0, 1, [1, 1, 0, 0]>, <39, 16, 26, 10, 1, 0, 1, [1, 1, 0, 0]>, <40, 17, 27, 10, 1, 0, 1, [1, 1, 0, 0]>, <41, 18, 28, 10, 1, 0, 1, [1, 1, 0, 0]>, <42, 19, 29, 10, 1, 0, 1, [1, 1, 0, 0]>, <43, 2, 12, 10, 2, 1, 0, [1, 1, 0, 0]>, <44, 3, 13, 10, 2, 1, 0, [1, 1, 0, 0]>, <45, 4, 14, 10, 2, 1, 0, [1, 1, 0, 0]>, <46, 5, 15, 10, 2, 1, 0, [1, 1, 0, 0]>, <47, 10, 20, 10, 2, 1, 0, [1, 1, 0, 0]>, <48, 11, 21, 10, 2, 1, 0, [1, 1, 0, 0]>, <49, 12, 22, 10, 2, 1, 0, [1, 1, 0, 0]>, <50, 14, 24, 10, 2, 1, 0, [1, 1, 0, 0]>, <51, 15, 25, 10, 2, 1, 0, [1, 1, 0, 0]>, <52, 16, 26, 10, 2, 1, 0, [1, 1, 0, 0]>, <53, 17, 27, 10, 2, 1, 0, [1, 1, 0, 0]>, <54, 18, 28, 10, 2, 1, 0, [1, 1, 0, 0]>, <55, 19, 29, 10, 2, 1, 0, [1, 1, 0, 0]>, <56, 2, 12, 10, 3, 0, 1, [0, 1, 1, 0]>, <57, 3, 13, 10, 3, 0, 1, [0, 1, 1, 0]>, <58, 4, 14, 10, 3, 0, 1, [0, 1, 1, 0]>, <59, 5, 15, 10, 3, 0, 1, [0, 1, 1, 0]>, <60, 10, 20, 10, 3, 0, 1, [0, 1, 1, 0]>, <61, 11, 21, 10, 3, 0, 1, [0, 1, 1, 0]>, <62, 12, 22, 10, 3, 0, 1, [0, 1, 1, 0]>, <63, 14, 24, 10, 3, 0, 1, [0, 1, 1, 0]>, <64, 15, 25, 10, 3, 0, 1, [0, 1, 1, 0]>, <65, 16, 26, 10, 3, 0, 1, [0, 1, 1, 0]>, <66, 17, 27, 10, 3, 0, 1, [0, 1, 1, 0]>, <67, 18, 28, 10, 3, 0, 1, [0, 1, 1, 0]>, <68, 19, 29, 10, 3, 0, 1, [0, 1, 1, 0]>, <69, 1, 12, 11, 4, 0, 0, [0, 0, 1, 1]>, <70, 2, 13, 11, 4, 0, 0, [0, 0, 1, 1]>, <71, 3, 14, 11, 4, 0, 0, [0, 0, 1, 1]>, <72, 4, 15, 11, 4, 0, 0, [0, 0, 1, 1]>, <73, 5, 16, 11, 4, 0, 0, [0, 0, 1, 1]>, <74, 9, 20, 11, 4, 0, 0, [0, 0, 1, 1]>, <75, 10, 21, 11, 4, 0, 0, [0, 0, 1, 1]>, <76, 11, 22, 11, 4, 0, 0, [0, 0, 1, 1]>, <77, 12, 23, 11, 4, 0, 0, [0, 0, 1, 1]>, <78, 13, 24, 11, 4, 0, 0, [0, 0, 1, 1]>, <79, 14, 25, 11, 4, 0, 0, [0, 0, 1, 1]>, <80, 15, 26, 11, 4, 0, 0, [0, 0, 1, 1]>, <81, 16, 27, 11, 4, 0, 0, [0, 0, 1, 1]>, <82, 17, 28, 11, 4, 0, 0, [0, 0, 1, 1]>, <83, 18, 29, 11, 4, 0, 0, [0, 0, 1, 1]>, <84, 4, 12, 8, 5, 0, 1, [0, 0, 1, 1]>, <85, 5, 13, 8, 5, 0, 1, [0, 0, 1, 1]>, <86, 11, 19, 8, 5, 0, 1, [0, 0, 1, 1]>, <87, 12, 20, 8, 5, 0, 1, [0, 0, 1, 1]>, <88, 16, 24, 8, 5, 0, 1, [0, 0, 1, 1]>, <89, 17, 25, 8, 5, 0, 1, [0, 0, 1, 1]>, <90, 18, 26, 8, 5, 0, 1, [0, 0, 1, 1]>, <91, 19, 27, 8, 5, 0, 1, [0, 0, 1, 1]>, <92, 20, 28, 8, 5, 0, 1, [0, 0, 1, 1]>, <93, 3, 12, 9, 6, 0, 1, [0, 1, 1, 0]>, <94, 4, 13, 9, 6, 0, 1, [0, 1, 1, 0]>, <95, 5, 14, 9, 6, 0, 1, [0, 1, 1, 0]>, <96, 11, 20, 9, 6, 0, 1, [0, 1, 1, 0]>, <97, 12, 21, 9, 6, 0, 1, [0, 1, 1, 0]>, <98, 15, 24, 9, 6, 0, 1, [0, 1, 1, 0]>, <99, 16, 25, 9, 6, 0, 1, [0, 1, 1, 0]>, <100, 17, 26, 9, 6, 0, 1, [0, 1, 1, 0]>, <101, 18, 27, 9, 6, 0, 1, [0, 1, 1, 0]>, <102, 19, 28, 9, 6, 0, 1, [0, 1, 1, 0]>, <103, 20, 29, 9, 6, 0, 1, [0, 1, 1, 0]>, <104, 2, 12, 10, 7, 0, 0, [0, 1, 1, 0]>, <105, 3, 13, 10, 7, 0, 0, [0, 1, 1, 0]>, <106, 4, 14, 10, 7, 0, 0, [0, 1, 1, 0]>, <107, 5, 15, 10, 7, 0, 0, [0, 1, 1, 0]>, <108, 10, 20, 10, 7, 0, 0, [0, 1, 1, 0]>, <109, 11, 21, 10, 7, 0, 0, [0, 1, 1, 0]>, <110, 12, 22, 10, 7, 0, 0, [0, 1, 1, 0]>, <111, 14, 24, 10, 7, 0, 0, [0, 1, 1, 0]>, <112, 15, 25, 10, 7, 0, 0, [0, 1, 1, 0]>, <113, 16, 26, 10, 7, 0, 0, [0, 1, 1, 0]>, <114, 17, 27, 10, 7, 0, 0, [0, 1, 1, 0]>, <115, 18, 28, 10, 7, 0, 0, [0, 1, 1, 0]>, <116, 19, 29, 10, 7, 0, 0, [0, 1, 1, 0]>};
